0	15
0	2
0	10
0	1
0	8
0	3
0	6
0	13
0	11
1	10
1	3
1	7
1	15
1	9
1	8
1	1
1	6
1	11
1	14
1	12
2	8
2	13
2	15
2	2
2	10
3	4
3	14
3	10
3	13
3	7
3	8
3	6
3	15
3	11
3	2
3	9
3	1
3	3
3	12
3	0
3	5
4	11
4	12
4	14
4	1
4	3
4	9
4	4
4	13
4	5
4	8
4	2
4	6
4	0
4	10
4	7
4	15